db/inputs/3018110714165912647638936777500626541.smt2
(set-logic QF_FP)
(declare-const x0 (_ FloatingPoint 11 53))
(declare-const x1 (_ FloatingPoint 11 53))
(declare-const x2 (_ FloatingPoint 11 53))
(declare-const x3 (_ FloatingPoint 11 53))
(declare-const x4 (_ FloatingPoint 11 53))
(declare-const x5 (_ FloatingPoint 11 53))
(declare-const x6 (_ FloatingPoint 11 53))
(declare-const x7 (_ FloatingPoint 11 53))
(assert (fp.gt (fp.mul RNE x5 x6) (fp.mul RNE x4 x3)))
(assert (fp.geq (fp.mul RNE x6 x2) (fp.neg x6)))
(assert (fp.geq (fp.sub RNE x1 x6) (fp.div RNE x6 x3)))
(assert (fp.eq (fp.div RNE x5 x1) (fp.mul RNE x3 x6)))
(assert (fp.geq (fp.mul RNE x4 x2) (fp.neg x1)))
(assert (fp.lt (fp.mul RNE x4 x3) (fp.neg x5)))
(check-sat)
