db/data/3018110714165912647638936777500626541.z3.out
sat
-------------------
194.578262313
